============================[ Problem Statistics ]=============================|                                                                             ||  Number of variables:          4242                                         ||  Number of clauses:           10195                                         ||  Parse time:                   0.60 s                                       ||                                                                             |============================[ Search Statistics ]==============================| Conflicts |          ORIGINAL         |          LEARNT          | Progress ||           |    Vars  Clauses Literals |    Limit  Clauses Lit/Cl |          |===============================================================================|       100 |    1591     6400   929801 |     2346      100     53 | 62.501 % ||       250 |    1591     6400   929801 |     2581      250     75 | 62.495 % |===============================================================================restarts              : 3conflicts             : 322            (357 /sec)decisions             : 588            (0.00 % random) (651 /sec)propagations          : 11897          (13175 /sec)conflict literals     : 25762          (94.68 % deleted)CPU time              : 0.903 sSATISFIABLE